
Gurobi 11.0.0 (win64) logging started Sat Jun 15 10:11:06 2024

Set parameter LogFile to value "./GurobiLog/stage_2_iter_22.log"
Gurobi Optimizer version 11.0.0 build v11.0.0rc2 (win64 - Windows 10.0 (18363.2))

CPU model: Intel(R) Core(TM) i7-8700 CPU @ 3.20GHz, instruction set [SSE2|AVX|AVX2]
Thread count: 6 physical cores, 12 logical processors, using up to 1 threads

Optimize a model with 1503 rows, 20472 columns and 157697 nonzeros
Coefficient statistics:
  Matrix range     [3e-03, 7e+03]
  Objective range  [1e-01, 2e+05]
  Bounds range     [1e+00, 6e+05]
  RHS range        [1e+00, 7e+04]
LP warm-start: use basis
Iteration    Objective       Primal Inf.    Dual Inf.      Time
       0    1.8963740e+04   4.353337e+03   0.000000e+00      0s
      74    2.2167194e+04   0.000000e+00   0.000000e+00      0s

Solved in 74 iterations and 0.02 seconds (0.01 work units)
Optimal objective  2.216719364e+04
